15 39
13 13
6 13
1 13
4 17
12 10
4 11
8 19
10 19
4 10
6 14
3 17
5 13
8 12
7 17
9 12
9 10
13 10
11 14
2 15
7 15
8 16
8 18
9 14
2 11
6 14
10 19
14 18
9 11
10 11
5 17
4 19
1 19
4 13
6 16
1 17
3 12
4 10
9 13
2 15
